18 16 92 43 139 168 154 74 5 128 
184 110 146 195 121 53 15 33 48 133 186 4 47 65 62 137 124 104 134 151 188 51 122 36 55 
67 196 59 143 13 84 69 37 197 44 9 21 119 176 
50 94 129 66 106 
125 157 
198 85 127 96 148 11 24 173 61 
25 
135 29 111 
42 86 57 56 39 118 142 64 
160 136 12 169 103 161 
2 131 193 158 190 170 
78 22 175 132 89 183 26 8 19 138 145 191 115 35 30 81 54 147 156 165 58 159 6 107 200 
28 75 187 17 152 116 113 60 73 32 100 185 181 40 31 82 177 7 49 95 167 174 114 
98 150 123 117 112 88 52 68 
71 80 101 79 179 
171 63 162 45 166 172 27 20 130 83 87 105 91 
144 102 182 199 34 99 192 194 108 163 120 46 23 126 
93 77 
178 1 164 38 140 41 72 10 189 76 155 97 141 90 3 149 70 109 153 180 14 

